\* Problem: Unknown *\

Maximize
 obj: + xp_0_0 + xp_0_1 + xp_0_2 + xp_0_3 + xp_0_4 + xp_0_5 + xp_0_6
 + xp_1_0 + xp_1_1 + xp_2_0 + xp_2_1 + xp_2_2 + xp_2_3 + xp_2_4 + xp_3_0
 + xp_3_1 + xp_3_2 + xp_3_3 + xp_4_0 + xp_5_0 + xp_5_1 + xp_6_0 + xp_6_1
 + xp_7_0 + xp_7_1 + xp_8_0 + xp_9_0 + xp_10_0 + xp_11_0 + xp_11_1
 + xp_11_2 + xp_11_3 + xp_12_0 + xp_13_0 + xp_13_1 + xp_14_0 + xp_15_0
 + xp_16_0 + xp_16_1 + xp_17_0 + xp_17_1 + xp_17_2 + xp_17_3 + xp_18_0
 + xp_18_1 + xp_18_2 + xp_18_3 + xp_19_0 + xp_19_1 + xp_19_2 + xp_19_3
 + xp_20_0 + xp_20_1 + xp_20_2 + xp_20_3 + xp_21_0 + xp_21_1 + xp_21_2
 + xp_21_3 + xp_21_4 + xp_22_0 + xp_22_1 + xp_22_2 + xp_22_3 + xp_22_4
 + xp_22_5 + xp_23_0 + xp_23_1 + xp_23_2 + xp_23_3 + xp_23_4

Subject To
 r_1: 0 xp_0_0 <= 30
 r_2: + xp_23_2 + xp_22_3 + xp_5_1 + xp_2_2 <= 29.4574468085106
 r_3: + xp_23_4 + xp_21_3 + xp_18_2 + xp_0_4 <= 30
 r_4: + xp_18_3 + xp_15_0 <= 30
 r_5: + xp_18_0 <= 28.4612068965517
 r_6: + xp_18_1 <= 30
 r_7: + xp_20_3 <= 30
 r_8: + xp_22_4 + xp_17_3 + xp_11_3 + xp_3_2 + xp_2_1
 <= 29.4574468085106
 r_9: + xp_23_3 + xp_11_1 + xp_3_1 <= 30
 r_10: + xp_17_2 + xp_3_0 <= 30
 r_11: + xp_18_1 + xp_11_2 <= 28.4612068965517
 r_12: + xp_11_0 <= 30
 r_13: + xp_3_3 <= 30
 r_14: + xp_19_1 + xp_14_0 + xp_0_6 + xp_0_1 <= 29.4574468085106
 r_15: + xp_21_0 + xp_19_3 <= 30
 r_16: + xp_22_2 + xp_21_1 + xp_0_5 + xp_0_2 <= 30
 r_17: + xp_0_0 <= 28.4612068965517
 r_18: + xp_21_3 + xp_4_0 + xp_0_4 <= 30
 r_19: + xp_19_0 <= 30
 r_20: + xp_21_4 + xp_21_2 + xp_19_2 + xp_0_3 <= 30
 r_21: + xp_20_1 <= 29.4574468085106
 r_22: + xp_21_4 + xp_7_1 <= 29.4574468085106
 r_23: + xp_22_5 + xp_22_4 + xp_22_3 <= 29.4574468085106
 r_24: + xp_23_2 + xp_17_3 + xp_6_1 + xp_3_3 + xp_3_2 + xp_0_6
 <= 29.4574468085106
 r_25: 0 xp_0_0 <= 29.4574468085106
 r_26: + xp_0_3 + xp_0_1 <= 28.4612068965517
 r_27: + xp_11_3 <= 29.4574468085106
 r_28: + xp_19_1 <= 29.4574468085106
 r_29: + xp_20_2 <= 30
 r_30: + xp_2_0 <= 29.4574468085106
 r_31: + xp_23_4 + xp_23_3 + xp_18_2 + xp_3_1 + xp_2_3 + xp_0_4 <= 30
 r_32: + xp_2_4 <= 30
 r_33: + xp_11_1 + xp_2_2 <= 30
 r_34: + xp_19_3 + xp_2_1 <= 30
 r_35: 0 xp_0_0 <= 30
 r_36: + xp_9_0 <= 29.4574468085106
 r_37: + xp_21_1 + xp_13_1 <= 30
 r_38: + xp_1_1 + xp_0_5 <= 30
 r_39: + xp_17_1 <= 30
 r_40: + xp_0_2 <= 28.4612068965517
 r_41: + xp_12_0 + xp_2_3 <= 29.4574468085106
 r_42: + xp_21_1 <= 30
 r_43: + xp_16_0 <= 30
 r_44: + xp_23_4 + xp_23_3 + xp_23_2 + xp_23_1 + xp_16_1 <= 30
 r_45: + xp_17_3 + xp_3_3 + xp_3_2 + xp_3_1 <= 30
 r_46: + xp_18_2 + xp_0_6 + xp_0_4 <= 28.4612068965517
 r_47: + xp_22_1 + xp_16_1 + xp_13_1 <= 30
 r_48: + xp_13_0 <= 30
 r_49: 0 xp_0_0 <= 30
 r_50: + xp_0_5 <= 28.4612068965517
 r_51: + xp_1_1 <= 30
 r_52: + xp_8_0 <= 30
 r_53: + xp_1_0 <= 30
 r_54: + xp_18_3 <= 28.4612068965517
 r_55: 0 xp_0_0 <= 30
 r_56: 0 xp_0_0 <= 30
 r_57: + xp_22_2 <= 28.4612068965517
 r_58: + xp_22_5 + xp_6_1 + xp_5_0 <= 28.4612068965517
 r_59: + xp_22_0 + xp_17_1 <= 28.4612068965517
 r_60: + xp_23_1 + xp_6_0 <= 28.4612068965517
 r_61: + xp_23_0 + xp_22_1 <= 28.4612068965517
 r_62: + xp_17_0 <= 28.4612068965517
 r_63: + xp_23_4 + xp_23_2 + xp_22_3 + xp_11_2 + xp_5_1
 <= 28.4612068965517
 r_64: + xp_23_3 + xp_22_4 + xp_17_3 + xp_17_2 <= 28.4612068965517
 r_65: + xp_21_4 + xp_20_1 + xp_7_1 + xp_3_3 + xp_2_4 + xp_0_3
 <= 29.4574468085106
 r_66: + xp_21_2 + xp_20_2 + xp_7_0 <= 30
 r_67: + xp_20_3 + xp_19_2 + xp_10_0 <= 30
 r_68: + xp_20_0 <= 30

Bounds
 0 <= xp_0_0 <= 26.7516131075737
 0 <= xp_0_1 <= 5.54139781540439
 0 <= xp_0_2 <= 14.0254839322721
 0 <= xp_0_3 <= 8.48408611686772
 0 <= xp_0_4 <= 1.29935475697053
 0 <= xp_0_5 <= 1.29935475697053
 0 <= xp_0_6 <= 1.29935475697053
 0 <= xp_1_0 <= 17.6687880652664
 0 <= xp_1_1 <= 15.197458620284
 0 <= xp_2_0 <= 22.3694468828336
 0 <= xp_2_1 <= 4.24204305843386
 0 <= xp_2_2 <= 3.47769477199301
 0 <= xp_2_3 <= 1.15923159066434
 0 <= xp_2_4 <= 1.15923159066434
 0 <= xp_3_0 <= 22.7643471552294
 0 <= xp_3_1 <= 5.01910898996389
 0 <= xp_3_2 <= 1.55413186306006
 0 <= xp_3_3 <= 0.777065931530032
 0 <= xp_4_0 <= 24.4586021845956
 0 <= xp_5_0 <= 20.382168487163
 0 <= xp_5_1 <= 4.0764336974326
 0 <= xp_6_0 <= 18.3439516384467
 0 <= xp_6_1 <= 3.66879032768934
 0 <= xp_7_0 <= 14.0636962561425
 0 <= xp_7_1 <= 7.03184812807124
 0 <= xp_8_0 <= 18.9554166930616
 0 <= xp_9_0 <= 17.5796203201781
 0 <= xp_10_0 <= 17.5796203201781
 0 <= xp_11_0 <= 25.4522583506032
 0 <= xp_11_1 <= 14.3057302648845
 0 <= xp_11_2 <= 5.82164414801676
 0 <= xp_11_3 <= 10.0636872064506
 0 <= xp_12_0 <= 16.509556474602
 0 <= xp_13_0 <= 13.3757980697007
 0 <= xp_13_1 <= 2.67515961394015
 0 <= xp_14_0 <= 15.2866263653723
 0 <= xp_15_0 <= 15.1337601017185
 0 <= xp_16_0 <= 12.101912539253
 0 <= xp_16_1 <= 2.42038250785061
 0 <= xp_17_0 <= 26.8917362738799
 0 <= xp_17_1 <= 9.92356404014443
 0 <= xp_17_2 <= 2.84076049085529
 0 <= xp_17_3 <= 2.84076049085529
 0 <= xp_18_0 <= 18.6241979710591
 0 <= xp_18_1 <= 12.7261291753016
 0 <= xp_18_2 <= 6.7770710219817
 0 <= xp_18_3 <= 2.53502796354784
 0 <= xp_19_0 <= 26.1274049556113
 0 <= xp_19_1 <= 2.45859483172098
 0 <= xp_19_2 <= 2.45859483172098
 0 <= xp_19_3 <= 9.15923272187582
 0 <= xp_20_0 <= 25.8726278495217
 0 <= xp_20_1 <= 6.57324933711007
 0 <= xp_20_2 <= 4.66241255735242
 0 <= xp_20_3 <= 2.33120627867621
 0 <= xp_21_0 <= 16.828032099257
 0 <= xp_21_1 <= 8.3439459823893
 0 <= xp_21_2 <= 6.29299452041158
 0 <= xp_21_3 <= 4.24204305843386
 0 <= xp_21_4 <= 2.05095146197772
 0 <= xp_22_0 <= 16.3184778870779
 0 <= xp_22_1 <= 4.24204305843386
 0 <= xp_22_2 <= 1.79617435588818
 0 <= xp_22_3 <= 8.48408611686772
 0 <= xp_22_4 <= 3.59234871177636
 0 <= xp_22_5 <= 1.79617435588818
 0 <= xp_23_0 <= 24.8025640039457
 0 <= xp_23_1 <= 6.03821741432204
 0 <= xp_23_2 <= 1.79617435588818
 0 <= xp_23_3 <= 1.79617435588818
 0 <= xp_23_4 <= 1.79617435588818

End
